10287.0
1 1 1 1 1 1 1 1 1 1 
9 9 7 7 7 7 7 2 2 2 2 2 2 2 2 2 2 2 2 1 1 1 1 3 1 1 3 3 3 3 3 3 3 3 3 3 3 3 3 6 6 8 8 8 8 6 8 8 8 8 8 3 6 6 6 6 6 6 6 6 6 5 5 6 5 5 5 6 6 4 0 0 0 0 9 0 0 0 0 0 4 0 0 4 4 4 4 4 4 4 4 4 4 9 4 9 9 4 9 2 